Reading model...
...model read.
creating competitive generators file...
...competitive generators recorded.
Loading data...
.. real-time data read.
Compiling instance...
...instance created.
Creating Offer Mitigation (model will solve as dispatch if TRUE)...
...storage offer mitigation file created
Converting model to MPEC...
...converted
NOTE: initial MIP solve with only storage competitive to get feasible solution
Solving...

Welcome to IBM(R) ILOG(R) CPLEX(R) Interactive Optimizer 12.9.0.0
  with Simplex, Mixed Integer & Barrier Optimizers
5725-A06 5725-A29 5724-Y48 5724-Y49 5724-Y54 5724-Y55 5655-Y21
Copyright IBM Corp. 1988, 2019.  All Rights Reserved.

Type 'help' for a list of available commands.
Type 'help' followed by a command name for more
information on commands.

CPLEX> Logfile 'cplex.log' closed.
Logfile 'C:\Users\llavin\Desktop\test826\logs\tmputh2o145.cplex.log' open.
CPLEX> New value for parallel optimization mode: -1
CPLEX> New value for mixed integer optimality gap tolerance: 0.01
CPLEX> New value for emphasis for MIP optimization: 1
CPLEX> New value for integrality tolerance: 1e-12
CPLEX> New value for deterministic time limit in ticks: 50000
CPLEX> Problem 'C:\Users\llavin\Desktop\test826\logs\tmph9s1gp7m.pyomo.lp' read.
Read time = 0.53 sec. (28.17 ticks)
CPLEX> Problem name         : C:\Users\llavin\Desktop\test826\logs\tmph9s1gp7m.pyomo.lp
Objective sense      : Maximize
Variables            :  107795  [Nneg: 1,  Box: 44062,  Free: 8928,
                                 Binary: 54804]
Objective nonzeros   :   17428
Linear constraints   :  247027  [Less: 82874,  Greater: 118442,  Equal: 45711]
  Nonzeros           :  624881
  RHS nonzeros       :  134905

Variables            : Min LB: -5000.000        Max UB: 1000000.       
Objective nonzeros   : Min   : 0.01666667       Max   : 208.3333       
Linear constraints   :
  Nonzeros           : Min   : 0.01666667       Max   : 1000000.       
  RHS nonzeros       : Min   : 0.01666667       Max   : 1000000.       
CPLEX> CPXPARAM_Parallel                                -1
CPXPARAM_Emphasis_MIP                            1
CPXPARAM_DetTimeLimit                            50000
CPXPARAM_MIP_Tolerances_MIPGap                   0.01
CPXPARAM_MIP_Tolerances_Integrality              9.9999999999999998e-13
Tried aggregator 3 times.
MIP Presolve eliminated 181610 rows and 41504 columns.
MIP Presolve added 6048 rows and 0 columns.
MIP Presolve modified 51634 coefficients.
Aggregator did 25788 substitutions.
Reduced MIP has 45677 rows, 38871 columns, and 144841 nonzeros.
Reduced MIP has 15280 binaries, 0 generals, 0 SOSs, and 0 indicators.
Presolve time = 0.67 sec. (419.69 ticks)
Probing fixed 791 vars, tightened 8022 bounds.
Probing time = 0.36 sec. (14.82 ticks)
Tried aggregator 2 times.
MIP Presolve eliminated 1776 rows and 1584 columns.
MIP Presolve modified 5425 coefficients.
Aggregator did 86 substitutions.
Reduced MIP has 43815 rows, 37201 columns, and 139447 nonzeros.
Reduced MIP has 14488 binaries, 0 generals, 0 SOSs, and 0 indicators.
Presolve time = 0.23 sec. (215.88 ticks)
Probing fixed 1 vars, tightened 229 bounds.
Probing time = 0.45 sec. (16.79 ticks)
Clique table members: 82767.
MIP emphasis: integer feasibility.
MIP search method: dynamic search.
Parallel mode: opportunistic, using up to 32 threads.
Root relaxation solution time = 1.13 sec. (1945.59 ticks)

        Nodes                                         Cuts/
   Node  Left     Objective  IInf  Best Integer    Best Bound    ItCnt     Gap

      0     0     1321.4604   776                   1321.4604    10627         
*     0+    0                         1321.4604     1321.4604             0.00%
      0     0        cutoff           1321.4604     1321.4604    10627    0.00%
Elapsed time = 3.61 sec. (3245.58 ticks, tree = 0.01 MB, solutions = 1)

Root node processing (before b&c):
  Real time             =    3.63 sec. (3249.42 ticks)
Parallel b&c, 32 threads:
  Real time             =    0.00 sec. (0.00 ticks)
  Sync time (average)   =    0.00 sec.
  Wait time (average)   =    0.00 sec.
                          ------------
Total (root+branch&cut) =    3.63 sec. (3249.42 ticks)

Solution pool: 1 solution saved.

MIP - Integer optimal solution:  Objective =  1.3214604390e+03
Solution time =    3.67 sec.  Iterations = 10627  Nodes = 0
Deterministic time = 3249.73 ticks  (885.24 ticks/sec)

CPLEX> Incumbent solution written to file 'C:\Users\llavin\Desktop\test826\logs\tmp70uub99x.cplex.sol'.
CPLEX> NOTE: no warmstart specified for MIP iteration, default behavior is true
NOTE: resolving with all competitive generators using storage-only solution to warmstart
Solving...

Welcome to IBM(R) ILOG(R) CPLEX(R) Interactive Optimizer 12.9.0.0
  with Simplex, Mixed Integer & Barrier Optimizers
5725-A06 5725-A29 5724-Y48 5724-Y49 5724-Y54 5724-Y55 5655-Y21
Copyright IBM Corp. 1988, 2019.  All Rights Reserved.

Type 'help' for a list of available commands.
Type 'help' followed by a command name for more
information on commands.

CPLEX> Logfile 'cplex.log' closed.
Logfile 'C:\Users\llavin\Desktop\test826\logs\tmp51gnqrds.cplex.log' open.
CPLEX> New value for parallel optimization mode: -1
CPLEX> New value for mixed integer optimality gap tolerance: 0.01
CPLEX> New value for emphasis for MIP optimization: 1
CPLEX> New value for integrality tolerance: 1e-12
CPLEX> New value for deterministic time limit in ticks: 50000
CPLEX> Problem 'C:\Users\llavin\Desktop\test826\logs\tmpkqj6937s.pyomo.lp' read.
Read time = 0.53 sec. (28.22 ticks)
CPLEX> MIP start file 'C:\Users\llavin\Desktop\test826\logs\tmp36o6z8j4.cplex.mst' read.
CPLEX> Problem name         : C:\Users\llavin\Desktop\test826\logs\tmpkqj6937s.pyomo.lp
Objective sense      : Maximize
Variables            :  109235  [Nneg: 1,  Box: 45502,  Free: 8928,
                                 Binary: 54804]
Objective nonzeros   :   18820
Linear constraints   :  247027  [Less: 82874,  Greater: 118442,  Equal: 45711]
  Nonzeros           :  624881
  RHS nonzeros       :  134905

Variables            : Min LB: -5000.000        Max UB: 1000000.       
Objective nonzeros   : Min   : 0.01666667       Max   : 208.3333       
Linear constraints   :
  Nonzeros           : Min   : 0.01666667       Max   : 1000000.       
  RHS nonzeros       : Min   : 0.01666667       Max   : 1000000.       
CPLEX> CPXPARAM_Parallel                                -1
CPXPARAM_Emphasis_MIP                            1
CPXPARAM_DetTimeLimit                            50000
CPXPARAM_MIP_Tolerances_MIPGap                   0.01
CPXPARAM_MIP_Tolerances_Integrality              9.9999999999999998e-13
Warning:  No solution found from 1 MIP starts.
Retaining values of one MIP start for possible repair.
Tried aggregator 3 times.
MIP Presolve eliminated 181610 rows and 42944 columns.
MIP Presolve added 6048 rows and 0 columns.
MIP Presolve modified 51634 coefficients.
Aggregator did 25788 substitutions.
Reduced MIP has 45677 rows, 38871 columns, and 144841 nonzeros.
Reduced MIP has 15280 binaries, 0 generals, 0 SOSs, and 0 indicators.
Presolve time = 0.66 sec. (420.47 ticks)
Probing fixed 791 vars, tightened 8022 bounds.
Probing time = 0.34 sec. (14.82 ticks)
Tried aggregator 2 times.
MIP Presolve eliminated 1776 rows and 1584 columns.
MIP Presolve modified 5425 coefficients.
Aggregator did 86 substitutions.
Reduced MIP has 43815 rows, 37201 columns, and 139447 nonzeros.
Reduced MIP has 14488 binaries, 0 generals, 0 SOSs, and 0 indicators.
Presolve time = 0.23 sec. (215.88 ticks)
Probing fixed 1 vars, tightened 229 bounds.
Probing time = 0.48 sec. (16.79 ticks)
Clique table members: 82767.
MIP emphasis: integer feasibility.
MIP search method: dynamic search.
Parallel mode: opportunistic, using up to 32 threads.
Root relaxation solution time = 1.25 sec. (2078.34 ticks)

        Nodes                                         Cuts/
   Node  Left     Objective  IInf  Best Integer    Best Bound    ItCnt     Gap

      0     0    33474.6795   932                  33474.6795    11543         
      0     0    33474.2587   156               Flowcuts: 180    11638         
      0     0    33473.6406   158                   Cuts: 105    11697         
      0     0    33473.6406   158                    Cuts: 54    11708         
Repair heuristic found nothing.
      0    11    33460.9790   154                 Impl Bds: 2    11748         
Elapsed time = 8.44 sec. (5064.58 ticks, tree = 0.02 MB, solutions = 0)
    524    87    33445.0562   153                  33468.5098    12049         
   1171   981    33447.9508   138                  33468.5098    14210         
   1871  1713    33448.3764   125                  33468.5098    15397         
   2264  1926    33440.4324   108                  33468.5098    15890         
   2636  2408    33432.2959    95                  33468.5098    17961         
   3086  2777    33402.6027    88                  33468.5098    20403         
   3534  3148    33423.9739    74                  33468.5098    22691         
*  3795  3111      integral     0    33338.3438    33468.5098    22482    0.39%
   3877  3444    33408.9037    45    33338.3438    33468.5098    24915    0.39%
   4034  3448    33386.4497    30    33338.3438    33468.5098    24925    0.39%

Cover cuts applied:  1
Implied bound cuts applied:  5
Flow cuts applied:  208

Root node processing (before b&c):
  Real time             =    6.53 sec. (5030.65 ticks)
Parallel b&c, 32 threads:
  Real time             =   13.81 sec. (2245.81 ticks)
  Sync time (average)   =    1.69 sec.
  Wait time (average)   =    0.00 sec.
                          ------------
Total (root+branch&cut) =   20.34 sec. (7276.46 ticks)

Solution pool: 1 solution saved.

MIP - Integer optimal, tolerance (0.01/1e-06):  Objective =  3.3338343841e+04
Current MIP best bound =  3.3468509788e+04 (gap = 130.166, 0.39%)
Solution time =   20.36 sec.  Iterations = 29371  Nodes = 4041 (4015)
Deterministic time = 7276.77 ticks  (357.42 ticks/sec)

CPLEX> Incumbent solution written to file 'C:\Users\llavin\Desktop\test826\logs\tmp6ew6l53k.cplex.sol'.
CPLEX> Exporting results... 
